NAME: GRASP_45_12
TYPE: TSP
COMMENT: line_45_12
DIMENSION: 45
EDGE_WEIGHT_TYPE: EUC_2D
NODE_COORD_SECTION
1 621 3851
2 1524 3782
3 849 2141
4 3788 4216
5 3115 557
6 1798 2734
7 3096 1817
8 4377 4718
9 2260 523
10 3449 4448
11 2548 4404
12 103 1536
13 2845 4359
14 2124 3535
15 476 1650
16 3456 1522
17 4853 4752
18 868 1393
19 3216 2054
20 1940 3293
21 2907 1832
22 542 1536
23 1949 2425
24 4883 4864
25 4769 953
26 842 2290
27 2196 4017
28 558 2678
29 3810 3757
30 3576 1355
31 4728 1449
32 3743 1015
33 949 1287
34 1391 1824
35 4995 3634
36 355 1252
37 3097 2297
38 55 2790
39 3051 3184
40 3305 3686
41 833 174
42 698 1404
43 4730 4640
44 2686 4230
45 2587 1040
